n_res = 5;
rcap = [37, 36, 39, 108, 114];
rtype = [1, 1, 1, 2, 2];
n_tasks = 16;
modes = [ {1, 2, 3}, {4, 5, 6}, {7, 8, 9}, {10, 11, 12}, {13, 14, 15}, {16, 17, 18}, {19, 20, 21}, {22, 23, 24}, {25, 26, 27}, {28, 29, 30}, {31, 32, 33}, {34, 35, 36}, {37, 38, 39}, {40, 41, 42}, {43, 44, 45}, {46, 47, 48} ];
succ = [ {5, 8, 11}, {4, 15}, {5, 6, 11}, {7}, {10, 12, 13}, {10, 12, 13}, {9}, {10, 16}, {13, 14}, {14, 15}, {12, 14, 16}, {15}, {16}, {}, {}, {} ];
n_opt = 48;
dur = [5, 8, 10, 9, 10, 10, 2, 3, 10, 2, 6, 8, 1, 4, 6, 4, 6, 9, 3, 8, 9, 2, 8, 8, 2, 5, 10, 3, 6, 7, 7, 8, 10, 1, 3, 4, 3, 4, 10, 2, 3, 4, 7, 7, 9, 2, 3, 6];
rreq = [|  8,  8,  8,  7,  6,  5,  5,  5,  3,  9,  8,  8,  8,  4,  4,  9,  8,  8, 10,  8,  6,  5,  3,  3,  3,  3,  3,  1,  1,  1,  8,  8,  8,  9,  7,  5,  9,  7,  5,  3,  3,  3,  8,  6,  3,  8,  8,  8
        |  8,  7,  6,  6,  5,  6,  2,  2,  2,  7,  6,  1,  4,  4,  2,  9,  6,  5,  7,  7,  6,  9,  9,  9,  3,  2,  2,  7,  6,  6,  8,  7,  5,  7,  4,  3,  8,  8,  7,  5,  4,  4,  9, 10,  9,  5,  5,  5
        |  8,  6,  4,  9,  7,  7, 10, 10, 10,  9,  9,  8,  6,  4,  4,  7,  6,  5,  9,  7,  1,  8,  6,  7,  9,  8,  7,  9,  9,  9,  9,  8,  7,  8,  8,  8,  6,  5,  2,  8,  7,  4,  3,  4,  3,  8,  7,  6
        |  6,  6,  5,  7,  5,  5,  9,  8,  7, 10, 10,  9,  7,  6,  3,  8,  8,  7,  8,  6,  5,  6,  6,  6,  3,  3,  2, 10,  7,  5,  9,  8,  4, 10,  9,  9,  7,  7,  7,  6,  5,  4,  7,  5,  3,  3,  2,  2
        |  9,  8,  8,  6,  4,  3,  9,  8,  7,  7,  7,  7,  7,  4,  2,  6,  5,  2,  7,  6,  3, 10, 10,  9, 10,  8,  6,  7,  6,  5,  3,  3,  2,  9,  7,  6,  9,  9,  8,  9,  6,  5,  6,  8,  6,  8,  6,  5 |];
